NAME : a280.tsp
COMMENT : Optimal tour for a280.tsp
TYPE : TOUR
DIMENSION : 280
Total Length: 3008.804725842716
TOUR_SECTION
1
2
280
3
279
278
248
249
247
244
243
242
241
240
245
246
239
238
237
236
235
234
233
232
231
250
251
230
229
228
227
226
225
224
223
222
219
218
215
214
211
212
213
216
217
220
221
196
197
198
201
199
145
146
147
143
144
200
202
203
204
205
206
207
210
209
208
253
252
254
257
255
256
258
259
260
261
262
263
264
269
270
17
16
271
272
273
274
275
276
277
4
5
6
7
9
8
10
11
12
15
13
14
24
23
25
22
26
27
28
32
33
34
35
40
41
42
43
60
61
118
62
63
58
59
44
45
46
39
38
36
37
50
51
49
52
53
48
47
54
55
56
57
68
69
64
66
67
70
71
72
73
74
75
77
78
76
79
81
82
89
112
88
83
87
84
85
65
86
116
117
115
114
113
111
110
107
106
105
104
108
109
90
91
92
80
93
94
95
96
97
98
99
100
101
102
103
169
170
171
172
168
167
166
165
164
163
162
187
188
189
190
191
192
195
194
193
186
185
184
183
182
180
179
176
181
161
173
174
175
160
159
158
157
119
120
121
122
123
124
125
30
31
29
126
127
128
21
130
131
20
19
132
18
133
134
135
136
268
267
137
138
266
265
140
141
142
148
139
149
150
178
177
151
152
156
153
155
154
129
-1
EOF
